DIMACS_lns/graph-1000-355.col
p edge 1000 1837
e 1 159
e 1 347
e 1 970
e 1 24
e 2 490
e 2 385
e 2 560
e 2 402
e 2 97
e 2 77
e 3 777
e 3 60
e 3 210
e 3 482
e 4 497
e 4 461
e 4 574
e 4 217
e 4 598
e 4 66
e 4 941
e 4 362
e 4 429
e 4 130
e 5 190
e 5 776
e 5 850
e 5 502
e 5 209
e 5 669
e 7 535
e 7 517
e 7 115
e 8 242
e 8 699
e 8 653
e 8 442
e 8 90
e 8 285
e 9 60
e 9 978
e 9 674
e 9 318
e 9 528
e 10 61
e 10 627
e 10 704
e 12 431
e 12 272
e 12 806
e 12 463
e 12 497
e 13 321
e 13 787
e 13 817
e 13 24
e 13 132
e 13 265
e 13 814
e 14 118
e 14 418
e 14 141
e 14 884
e 14 531
e 15 863
e 15 552
e 15 615
e 15 560
e 16 76
e 16 860
e 16 633
e 16 36
e 16 499
e 16 491
e 17 965
e 17 731
e 17 669
e 17 43
e 18 337
e 18 197
e 18 659
e 18 279
e 18 185
e 19 970
e 19 708
e 19 464
e 19 673
e 19 709
e 20 808
e 20 296
e 20 980
e 21 116
e 21 632
e 21 866
e 22 927
e 22 90
e 22 689
e 22 695
e 22 854
e 22 586
e 23 549
e 23 576
e 23 426
e 23 356
e 23 560
e 23 870
e 24 192
e 25 276
e 25 776
e 25 939
e 25 710
e 26 967
e 26 129
e 26 477
e 26 269
e 27 952
e 27 280
e 27 843
e 28 851
e 28 786
e 28 982
e 30 711
e 30 423
e 30 554
e 32 623
e 32 748
e 32 822
e 32 276
e 33 929
e 33 130
e 33 600
e 33 349
e 33 72
e 33 845
e 33 993
e 33 367
e 33 560
e 34 843
e 34 398
e 34 736
e 35 470
e 35 222
e 35 300
e 35 801
e 36 651
e 36 536
e 36 591
e 39 44
e 39 279
e 39 806
e 40 874
e 40 929
e 40 660
e 40 640
e 40 49
e 41 390
e 41 903
e 41 288
e 41 914
e 41 144
e 41 452
e 41 880
e 43 270
e 43 921
e 44 299
e 44 326
e 44 440
e 44 276
e 45 185
e 45 632
e 45 544
e 45 789
e 45 250
e 47 428
e 47 112
e 47 919
e 49 615
e 49 498
e 49 754
e 49 688
e 50 660
e 50 120
e 50 982
e 50 74
e 51 773
e 51 339
e 51 272
e 52 237
e 52 998
e 52 270
e 52 97
e 53 987
e 53 970
e 53 588
e 53 110
e 53 490
e 53 330
e 54 457
e 54 651
e 54 76
e 54 734
e 54 661
e 56 126
e 56 960
e 56 853
e 56 925
e 57 969
e 57 667
e 57 165
e 57 107
e 57 705
e 58 817
e 58 754
e 58 424
e 58 558
e 58 683
e 58 474
e 58 548
e 58 819
e 59 410
e 59 737
e 59 405
e 60 862
e 60 434
e 60 268
e 60 94
e 60 200
e 60 293
e 61 622
e 61 107
e 61 163
e 63 819
e 63 396
e 63 165
e 64 427
e 64 299
e 64 178
e 65 443
e 65 277
e 65 914
e 65 798
e 66 354
e 66 931
e 70 144
e 70 380
e 70 486
e 70 369
e 71 735
e 71 222
e 71 411
e 71 534
e 71 940
e 72 352
e 72 126
e 72 565
e 72 330
e 72 226
e 73 412
e 73 923
e 73 318
e 74 746
e 74 280
e 74 978
e 75 850
e 75 661
e 75 636
e 76 930
e 77 239
e 77 483
e 78 987
e 78 402
e 78 349
e 78 929
e 78 621
e 78 579
e 79 282
e 79 970
e 79 157
e 79 222
e 81 959
e 81 115
e 81 861
e 81 388
e 82 470
e 82 793
e 82 242
e 83 290
e 83 720
e 83 605
e 83 819
e 83 532
e 85 300
e 85 354
e 85 776
e 85 91
e 86 846
e 86 316
e 86 492
e 87 347
e 87 832
e 87 735
e 87 128
e 87 915
e 88 971
e 88 353
e 88 310
e 89 817
e 89 724
e 89 790
e 89 178
e 89 581
e 90 687
e 90 510
e 90 641
e 90 949
e 90 816
e 90 720
e 90 647
e 91 724
e 91 943
e 91 929
e 91 741
e 92 509
e 92 288
e 92 793
e 92 918
e 92 181
e 93 763
e 93 785
e 93 891
e 93 578
e 94 437
e 94 840
e 95 168
e 95 881
e 95 544
e 95 821
e 96 130
e 96 286
e 96 684
e 96 883
e 96 665
e 96 498
e 97 703
e 97 660
e 97 494
e 98 241
e 98 947
e 98 143
e 99 353
e 99 456
e 99 921
e 99 536
e 99 779
e 99 400
e 99 112
e 99 940
e 99 227
e 99 934
e 100 865
e 100 526
e 100 961
e 100 918
e 101 401
e 101 209
e 101 849
e 101 172
e 102 940
e 102 237
e 102 234
e 102 266
e 103 313
e 103 405
e 103 955
e 103 518
e 103 201
e 105 840
e 105 222
e 105 190
e 107 882
e 107 551
e 107 185
e 107 888
e 110 403
e 110 149
e 110 301
e 110 114
e 112 798
e 112 468
e 112 310
e 113 368
e 113 729
e 113 944
e 114 401
e 114 382
e 114 688
e 115 820
e 115 776
e 115 944
e 115 491
e 116 445
e 116 367
e 116 773
e 116 273
e 116 741
e 116 278
e 117 193
e 117 699
e 117 790
e 117 191
e 117 713
e 117 216
e 117 353
e 118 929
e 118 370
e 118 440
e 118 239
e 118 158
e 120 705
e 120 825
e 120 609
e 120 245
e 120 994
e 122 381
e 122 533
e 122 925
e 123 200
e 123 646
e 123 749
e 123 812
e 123 530
e 124 763
e 124 278
e 124 710
e 124 296
e 125 762
e 125 779
e 125 917
e 125 353
e 126 540
e 126 570
e 126 683
e 127 655
e 127 965
e 127 368
e 127 212
e 127 275
e 127 234
e 127 953
e 127 491
e 128 250
e 128 479
e 128 883
e 128 212
e 128 816
e 129 366
e 129 741
e 130 593
e 130 226
e 130 944
e 131 558
e 131 471
e 131 202
e 131 541
e 131 843
e 131 735
e 131 459
e 132 688
e 132 859
e 132 527
e 133 545
e 133 407
e 133 632
e 133 411
e 134 456
e 134 191
e 134 942
e 134 789
e 134 774
e 134 659
e 134 952
e 135 484
e 135 853
e 135 412
e 135 891
e 135 779
e 135 358
e 135 789
e 135 566
e 136 330
e 136 172
e 136 586
e 136 185
e 137 368
e 137 749
e 137 423
e 139 575
e 139 883
e 139 393
e 141 1000
e 141 573
e 141 997
e 141 893
e 141 504
e 141 781
e 141 952
e 142 274
e 142 740
e 142 257
e 142 889
e 143 791
e 143 295
e 143 405
e 144 271
e 144 401
e 144 912
e 145 392
e 145 358
e 145 172
e 145 623
e 145 446
e 145 573
e 145 433
e 145 591
e 149 529
e 149 689
e 149 770
e 149 971
e 149 483
e 149 906
e 151 321
e 151 489
e 151 867
e 151 368
e 151 953
e 152 600
e 152 840
e 152 429
e 152 190
e 152 987
e 153 993
e 153 972
e 153 286
e 153 688
e 155 256
e 155 376
e 155 341
e 155 293
e 156 247
e 156 854
e 156 281
e 156 452
e 156 486
e 157 241
e 157 714
e 157 358
e 157 934
e 157 311
e 158 418
e 158 350
e 158 515
e 158 164
e 158 949
e 158 273
e 159 371
e 159 273
e 159 997
e 159 317
e 159 542
e 159 951
e 159 435
e 159 268
e 159 533
e 162 568
e 162 705
e 162 176
e 162 431
e 163 615
e 163 690
e 163 228
e 163 597
e 164 970
e 164 403
e 165 356
e 165 877
e 168 804
e 168 831
e 168 912
e 168 886
e 169 881
e 169 282
e 169 927
e 170 967
e 170 573
e 170 506
e 170 641
e 170 383
e 171 300
e 171 473
e 171 179
e 171 985
e 171 536
e 173 533
e 173 423
e 173 226
e 175 477
e 175 223
e 175 450
e 175 366
e 176 235
e 176 695
e 178 610
e 178 435
e 178 702
e 178 585
e 179 653
e 179 367
e 179 432
e 179 285
e 179 986
e 180 257
e 180 992
e 180 352
e 180 566
e 181 730
e 181 486
e 183 479
e 183 649
e 183 882
e 183 348
e 183 382
e 183 228
e 185 985
e 185 854
e 185 554
e 186 877
e 186 930
e 186 248
e 186 286
e 189 781
e 189 927
e 189 589
e 189 902
e 189 668
e 190 228
e 190 789
e 190 870
e 191 527
e 191 449
e 192 230
e 192 328
e 192 413
e 192 731
e 192 753
e 193 969
e 193 391
e 193 759
e 193 242
e 196 635
e 196 904
e 196 727
e 196 275
e 197 859
e 197 418
e 197 853
e 197 883
e 197 272
e 198 889
e 198 237
e 198 218
e 198 516
e 200 510
e 200 372
e 200 576
e 200 780
e 201 539
e 201 432
e 201 845
e 201 541
e 202 566
e 202 999
e 202 791
e 204 653
e 204 457
e 204 957
e 204 455
e 204 954
e 204 792
e 204 857
e 205 529
e 205 589
e 205 753
e 205 871
e 205 647
e 205 582
e 205 261
e 206 552
e 206 522
e 206 677
e 206 244
e 206 721
e 206 466
e 209 504
e 210 381
e 210 831
e 210 470
e 210 396
e 212 361
e 212 260
e 212 541
e 216 330
e 216 687
e 216 274
e 217 227
e 217 233
e 218 327
e 218 670
e 218 519
e 220 942
e 220 312
e 220 851
e 220 639
e 220 852
e 222 533
e 223 680
e 223 467
e 223 489
e 223 353
e 223 981
e 223 894
e 224 236
e 224 474
e 224 274
e 224 767
e 226 645
e 226 278
e 227 593
e 227 384
e 228 981
e 228 467
e 228 599
e 229 959
e 229 845
e 229 370
e 230 883
e 230 361
e 230 637
e 233 373
e 233 239
e 233 377
e 233 407
e 233 537
e 234 571
e 234 610
e 234 790
e 234 332
e 234 982
e 234 625
e 235 592
e 235 299
e 235 361
e 235 641
e 235 929
e 236 352
e 236 914
e 236 506
e 236 993
e 237 896
e 237 406
e 237 721
e 237 244
e 237 319
e 237 860
e 237 602
e 238 748
e 238 449
e 238 455
e 238 663
e 239 666
e 239 361
e 239 957
e 239 640
e 239 684
e 240 299
e 240 785
e 240 362
e 240 674
e 241 670
e 241 711
e 242 420
e 242 267
e 242 791
e 242 683
e 242 871
e 244 572
e 244 888
e 244 383
e 245 957
e 245 807
e 246 523
e 246 426
e 246 915
e 247 621
e 247 292
e 248 387
e 248 859
e 248 399
e 248 459
e 248 414
e 249 279
e 249 316
e 249 499
e 249 402
e 250 366
e 250 530
e 250 845
e 250 564
e 250 434
e 252 494
e 252 652
e 252 742
e 252 289
e 252 887
e 252 444
e 253 716
e 253 926
e 253 369
e 256 450
e 256 558
e 257 584
e 257 616
e 257 598
e 257 581
e 259 839
e 259 701
e 259 578
e 260 423
e 260 702
e 260 289
e 261 468
e 261 501
e 261 819
e 261 363
e 261 727
e 262 579
e 262 754
e 262 692
e 262 365
e 264 433
e 264 730
e 264 380
e 265 603
e 265 930
e 265 320
e 266 779
e 266 849
e 266 523
e 266 731
e 266 320
e 267 440
e 267 556
e 267 884
e 267 822
e 268 929
e 268 862
e 268 476
e 268 393
e 269 505
e 269 482
e 269 702
e 270 628
e 270 359
e 271 292
e 271 930
e 272 338
e 273 362
e 273 491
e 273 443
e 273 357
e 273 412
e 274 609
e 274 531
e 274 708
e 275 810
e 275 468
e 275 573
e 276 507
e 277 703
e 277 862
e 277 431
e 277 813
e 277 734
e 277 909
e 278 938
e 278 641
e 279 300
e 279 970
e 280 327
e 280 791
e 281 387
e 281 890
e 281 574
e 282 847
e 282 698
e 282 605
e 284 553
e 284 799
e 284 857
e 285 359
e 285 674
e 285 976
e 285 711
e 285 288
e 286 963
e 286 450
e 286 746
e 289 464
e 289 724
e 289 411
e 290 435
e 290 913
e 290 977
e 290 505
e 290 442
e 292 509
e 292 517
e 293 994
e 293 528
e 293 345
e 295 542
e 295 631
e 295 687
e 296 675
e 296 822
e 296 362
e 296 374
e 296 406
e 299 327
e 299 312
e 299 872
e 300 666
e 300 687
e 301 744
e 301 619
e 301 855
e 301 985
e 303 850
e 303 716
e 303 674
e 303 659
e 305 575
e 305 877
e 305 592
e 310 464
e 310 947
e 310 856
e 310 426
e 311 762
e 311 503
e 311 981
e 311 653
e 312 976
e 312 934
e 312 959
e 313 382
e 313 627
e 314 929
e 314 614
e 314 398
e 314 865
e 316 963
e 316 993
e 317 350
e 317 832
e 317 536
e 317 762
e 317 628
e 317 319
e 318 361
e 318 423
e 318 557
e 318 796
e 319 447
e 319 636
e 320 923
e 320 365
e 320 880
e 321 845
e 321 689
e 321 549
e 321 377
e 321 502
e 321 729
e 321 373
e 325 565
e 325 965
e 325 937
e 325 700
e 326 423
e 326 385
e 327 359
e 327 662
e 327 803
e 327 767
e 327 801
e 327 912
e 328 354
e 328 877
e 329 777
e 329 690
e 329 894
e 329 646
e 329 468
e 330 887
e 331 340
e 331 1000
e 331 556
e 331 441
e 332 619
e 332 872
e 332 355
e 332 531
e 334 566
e 334 374
e 334 724
e 334 357
e 336 779
e 336 527
e 336 711
e 337 998
e 337 474
e 337 666
e 338 695
e 338 977
e 338 691
e 339 704
e 339 540
e 339 471
e 340 598
e 340 531
e 340 419
e 340 382
e 341 706
e 341 498
e 341 505
e 345 742
e 345 701
e 347 403
e 348 780
e 348 474
e 348 599
e 348 947
e 348 633
e 349 455
e 349 700
e 350 972
e 350 770
e 350 693
e 352 447
e 352 461
e 352 598
e 352 742
e 353 452
e 353 438
e 353 966
e 353 459
e 354 882
e 354 891
e 354 680
e 354 787
e 355 363
e 355 793
e 356 866
e 356 781
e 356 678
e 357 615
e 357 855
e 357 549
e 357 616
e 357 400
e 358 542
e 358 762
e 359 633
e 361 691
e 361 652
e 361 537
e 361 856
e 362 413
e 363 499
e 363 631
e 363 845
e 365 614
e 367 934
e 367 637
e 367 843
e 367 503
e 367 400
e 368 774
e 368 998
e 368 609
e 368 869
e 369 817
e 369 834
e 369 706
e 369 381
e 370 889
e 370 625
e 370 680
e 370 749
e 371 585
e 371 881
e 371 427
e 372 764
e 372 391
e 373 742
e 373 801
e 373 853
e 373 616
e 374 504
e 374 383
e 374 657
e 375 960
e 375 982
e 375 969
e 375 525
e 376 640
e 376 687
e 376 906
e 377 399
e 377 942
e 380 529
e 380 949
e 380 578
e 380 919
e 381 566
e 381 815
e 382 985
e 383 532
e 383 667
e 383 526
e 384 460
e 384 502
e 385 846
e 386 1000
e 386 609
e 386 518
e 386 491
e 387 929
e 388 390
e 388 967
e 390 650
e 391 420
e 391 845
e 391 753
e 392 569
e 392 565
e 392 631
e 392 921
e 393 600
e 393 880
e 393 990
e 395 435
e 395 599
e 395 479
e 396 655
e 396 761
e 396 913
e 398 946
e 398 851
e 399 456
e 399 980
e 399 988
e 400 925
e 400 411
e 401 639
e 401 687
e 401 623
e 402 865
e 403 972
e 403 570
e 403 636
e 403 765
e 403 865
e 403 548
e 405 872
e 405 931
e 405 611
e 406 464
e 406 654
e 406 506
e 407 902
e 407 784
e 408 660
e 408 683
e 408 661
e 410 920
e 410 886
e 410 461
e 411 716
e 411 940
e 412 777
e 412 920
e 413 912
e 413 737
e 413 917
e 413 541
e 414 426
e 414 621
e 416 743
e 416 673
e 416 837
e 416 746
e 418 586
e 419 561
e 419 426
e 419 711
e 420 895
e 420 938
e 420 701
e 421 693
e 421 593
e 421 645
e 423 709
e 423 793
e 423 831
e 424 944
e 424 441
e 424 962
e 425 610
e 425 639
e 425 484
e 427 887
e 428 501
e 428 746
e 429 637
e 431 589
e 431 914
e 432 867
e 432 652
e 432 952
e 432 767
e 433 701
e 433 982
e 433 715
e 434 993
e 435 738
e 436 999
e 436 655
e 436 551
e 437 887
e 437 524
e 438 808
e 438 955
e 438 566
e 439 737
e 439 480
e 439 518
e 440 970
e 440 584
e 441 564
e 441 825
e 441 463
e 442 760
e 443 819
e 443 902
e 443 647
e 443 976
e 444 731
e 444 990
e 444 468
e 445 484
e 445 982
e 445 459
e 445 633
e 446 992
e 446 815
e 446 690
e 446 564
e 447 506
e 447 574
e 449 877
e 449 680
e 449 960
e 450 688
e 450 737
e 450 714
e 452 552
e 452 912
e 454 855
e 454 880
e 454 780
e 454 513
e 454 988
e 455 939
e 456 663
e 456 806
e 457 570
e 457 893
e 457 614
e 459 917
e 459 734
e 459 598
e 459 724
e 460 687
e 460 473
e 460 814
e 460 952
e 460 646
e 461 993
e 463 525
e 464 649
e 464 699
e 466 565
e 466 670
e 467 606
e 468 909
e 469 738
e 469 920
e 469 984
e 470 978
e 470 536
e 470 785
e 470 554
e 470 988
e 470 572
e 471 731
e 471 500
e 471 978
e 473 534
e 474 548
e 476 906
e 476 951
e 476 606
e 476 626
e 477 713
e 477 652
e 478 856
e 478 883
e 478 570
e 479 499
e 479 692
e 480 657
e 480 998
e 481 522
e 481 860
e 481 825
e 481 560
e 481 581
e 481 622
e 482 972
e 482 616
e 483 786
e 484 606
e 484 923
e 486 778
e 486 605
e 486 713
e 489 701
e 490 746
e 490 558
e 490 971
e 491 789
e 491 684
e 491 801
e 492 938
e 492 789
e 492 774
e 493 741
e 493 704
e 493 588
e 493 566
e 493 832
e 494 636
e 494 538
e 494 611
e 497 584
e 497 816
e 499 666
e 499 820
e 500 773
e 500 691
e 500 883
e 501 613
e 502 890
e 502 586
e 503 517
e 503 804
e 505 693
e 505 881
e 506 566
e 506 817
e 507 825
e 507 754
e 507 633
e 507 897
e 509 626
e 510 761
e 510 941
e 510 532
e 513 939
e 513 993
e 515 877
e 515 839
e 515 593
e 516 942
e 516 970
e 517 882
e 518 795
e 518 822
e 519 627
e 519 564
e 522 770
e 523 730
e 523 537
e 523 931
e 523 944
e 524 923
e 524 701
e 524 846
e 524 969
e 525 822
e 526 962
e 527 653
e 527 891
e 527 821
e 527 584
e 527 552
e 527 849
e 528 641
e 528 807
e 529 809
e 529 902
e 529 637
e 530 814
e 531 884
e 532 838
e 532 895
e 533 767
e 533 551
e 534 649
e 535 913
e 535 591
e 536 992
e 536 717
e 536 570
e 536 690
e 536 709
e 536 966
e 537 628
e 537 717
e 537 764
e 537 739
e 537 894
e 537 708
e 538 901
e 538 897
e 539 990
e 539 943
e 539 628
e 539 799
e 539 597
e 540 720
e 541 598
e 541 769
e 541 894
e 544 939
e 544 761
e 545 611
e 545 693
e 549 820
e 549 734
e 549 661
e 549 884
e 549 591
e 549 951
e 551 845
e 552 895
e 553 739
e 553 901
e 554 687
e 556 619
e 557 940
e 557 985
e 557 902
e 557 633
e 558 792
e 558 890
e 560 992
e 561 584
e 561 881
e 564 810
e 564 972
e 565 741
e 566 850
e 566 893
e 568 871
e 568 947
e 569 896
e 569 838
e 570 667
e 571 943
e 571 616
e 571 825
e 572 908
e 572 950
e 572 803
e 573 988
e 575 953
e 575 880
e 576 930
e 576 882
e 577 826
e 577 612
e 577 843
e 577 671
e 578 860
e 578 804
e 579 632
e 579 856
e 581 601
e 581 730
e 582 655
e 582 903
e 585 866
e 588 657
e 588 677
e 589 917
e 591 877
e 592 736
e 592 780
e 592 616
e 593 904
e 597 659
e 597 796
e 597 853
e 598 693
e 598 961
e 598 746
e 600 761
e 600 609
e 601 739
e 601 988
e 601 882
e 601 914
e 601 947
e 602 840
e 602 651
e 603 795
e 603 918
e 605 817
e 605 693
e 605 609
e 610 976
e 610 951
e 611 784
e 611 920
e 612 721
e 612 862
e 612 941
e 612 622
e 613 947
e 613 695
e 613 623
e 615 819
e 615 895
e 615 826
e 616 691
e 616 692
e 616 852
e 619 816
e 621 748
e 621 939
e 622 986
e 622 812
e 623 714
e 623 636
e 624 819
e 624 978
e 624 997
e 624 877
e 625 861
e 625 904
e 626 736
e 626 882
e 626 846
e 631 689
e 631 832
e 632 650
e 632 925
e 632 908
e 632 980
e 635 761
e 635 931
e 636 734
e 636 852
e 637 869
e 639 921
e 639 897
e 639 853
e 639 688
e 641 863
e 645 748
e 645 703
e 646 856
e 646 961
e 646 748
e 646 653
e 646 963
e 646 972
e 647 743
e 647 673
e 649 684
e 650 673
e 652 808
e 654 737
e 654 700
e 655 896
e 655 821
e 657 743
e 659 709
e 660 796
e 661 682
e 661 738
e 661 861
e 662 949
e 662 863
e 663 792
e 663 736
e 663 1000
e 665 786
e 665 691
e 666 711
e 667 746
e 667 787
e 668 675
e 668 901
e 669 690
e 669 843
e 670 796
e 671 990
e 671 764
e 673 838
e 673 946
e 673 806
e 675 981
e 675 779
e 677 683
e 677 807
e 677 709
e 678 739
e 678 790
e 680 977
e 680 980
e 682 769
e 682 822
e 684 985
e 687 978
e 688 894
e 688 769
e 689 886
e 691 980
e 692 760
e 694 941
e 694 807
e 694 773
e 698 709
e 698 986
e 698 731
e 699 778
e 700 869
e 700 861
e 701 874
e 703 893
e 703 954
e 704 746
e 705 819
e 705 786
e 706 957
e 706 840
e 710 927
e 711 753
e 711 856
e 713 951
e 714 807
e 715 819
e 715 817
e 716 813
e 716 834
e 716 790
e 717 867
e 720 984
e 720 743
e 727 930
e 729 930
e 729 839
e 730 950
e 731 883
e 732 981
e 732 894
e 732 926
e 734 903
e 735 863
e 735 893
e 736 872
e 738 895
e 738 886
e 739 908
e 739 904
e 739 897
e 739 760
e 740 978
e 740 976
e 744 882
e 744 808
e 746 808
e 746 976
e 748 832
e 749 840
e 749 813
e 749 972
e 753 953
e 754 888
e 759 888
e 759 856
e 760 939
e 761 988
e 762 774
e 763 861
e 764 991
e 764 921
e 765 947
e 765 869
e 765 847
e 767 934
e 769 870
e 769 999
e 774 935
e 774 805
e 774 780
e 776 812
e 778 839
e 778 952
e 781 965
e 781 854
e 784 991
e 785 869
e 785 971
e 785 908
e 787 939
e 793 992
e 795 840
e 795 826
e 796 998
e 796 917
e 798 925
e 799 938
e 799 839
e 801 953
e 801 852
e 803 987
e 805 991
e 805 888
e 807 926
e 808 984
e 808 894
e 809 925
e 809 961
e 810 942
e 810 951
e 813 967
e 814 950
e 815 937
e 815 889
e 816 863
e 816 904
e 816 883
e 817 970
e 820 998
e 821 837
e 822 862
e 825 912
e 832 998
e 834 857
e 837 971
e 838 960
e 840 855
e 843 935
e 845 957
e 847 941
e 852 946
e 853 921
e 855 920
e 856 985
e 857 872
e 859 912
e 860 895
e 865 998
e 871 917
e 872 942
e 874 969
e 877 909
e 877 927
e 877 982
e 882 925
e 883 915
e 886 953
e 887 997
e 889 951
e 890 895
e 890 903
e 893 970
e 895 981
e 902 908
e 908 934
e 914 926
e 915 992
e 917 926
e 918 994
e 919 971
e 920 944
e 920 951
e 923 925
e 929 959
e 935 937
e 942 988
e 946 963
e 950 985
e 950 954
e 953 969
e 954 955
e 955 978
e 961 982
e 962 977
e 963 976
e 966 993
e 970 1000
e 971 992
